language ESSENCE' 1.0

letting jobs = 102
letting horizon = 821
letting resourcesRenew = 2
letting resourcesNonrenew = 2
letting resourceLimits = [19, 20, 600, 562]
letting successors = [[2, 3, 4, 5, 6, 7, 10, 11, 12, 19], [26, 22, 14, 9, 8], [26, 24, 23, 20, 17, 14], [16, 15, 8], [24, 23, 20, 17, 16], [29, 25, 16, 13], [25, 22, 18, 14], [32, 24, 21, 20, 17], [29, 16, 13], [35, 29, 25, 18, 16], [37, 28, 27, 26, 25, 23, 20], [37, 35, 33, 32, 30, 29, 27, 25, 21], [35, 32, 24, 21, 18], [37, 35, 29, 16], [36, 35, 32, 27, 25, 24, 21], [36, 32, 30, 27, 21], [38, 29, 25, 18], [46, 42, 37, 36, 33, 31, 27], [39, 36, 33, 32, 31, 25], [52, 46, 45, 41, 40, 39, 35, 33], [45, 42, 40, 38, 28], [52, 42, 40, 38, 28], [46, 45, 42, 38, 36, 30], [52, 45, 40, 38, 37, 31], [52, 51, 47, 46, 45, 42, 34], [56, 52, 51, 46, 45, 38, 34], [52, 47, 45, 41, 39, 34], [46, 41, 31], [56, 51, 47, 46, 34], [31], [56, 51, 47, 34], [61, 58, 51, 50, 48, 46, 45, 44, 43], [51, 47, 34], [65, 61, 58, 50, 48, 44, 43], [61, 58, 51, 47, 43, 42], [65, 61, 56, 54, 50, 48, 43], [65, 61, 57, 56, 54, 49, 43], [61, 55, 53, 49, 47, 44], [69, 63, 61, 58, 54, 51, 50, 49], [73, 65, 61, 56, 49, 44], [65, 56, 53, 51, 44], [69, 64, 57, 56, 55, 53, 49], [79, 73, 70, 69, 64, 63, 55, 53], [72, 69, 64, 63, 59, 57, 54], [72, 69, 64, 63, 59, 57, 54], [72, 70, 69, 65, 63, 62, 60, 59, 57], [79, 73, 64, 63, 57, 54], [73, 69, 64, 49], [72, 70, 62, 60, 59], [76, 70, 64, 59, 57], [79, 73, 72, 70, 67, 66, 62], [89, 73, 72, 71, 68, 67, 66], [68, 67, 66, 60], [70, 62, 60], [89, 75, 72, 71, 62], [89, 78, 76, 75, 71, 68], [89, 75, 68, 67, 66], [68, 60], [89, 79, 74, 67, 66], [89, 80, 78, 75, 74, 71], [89, 68, 67], [101, 82, 80, 78, 68], [101, 89, 88, 76, 74], [89, 75, 68], [101, 89, 74, 71], [101, 88, 87, 85, 80, 78, 77], [101, 87, 85, 83, 82, 80, 78], [88, 87, 84, 74], [101, 89, 71], [101, 90, 83, 82, 80, 78], [90, 88, 87, 86, 83, 82], [101, 98, 90, 83, 82, 81], [101, 99, 98, 84, 81, 77], [99, 98, 85, 81, 77], [101, 98, 90, 82, 81], [87, 82, 81, 80], [100, 97, 95, 90, 86, 83], [99, 84, 81], [101, 99, 97, 96, 95, 94, 93, 91, 90], [100, 99, 98, 95, 94, 93, 92, 91], [97, 96, 95, 93, 91, 86], [100, 99, 97, 95, 84], [96, 93, 92, 91], [94, 92, 91], [96, 95, 93], [94, 92], [98, 93], [98, 91], [98, 91], [92], [102], [102], [102], [102], [102], [102], [102], [102], [102], [102], [102], []]
letting durations = [[0], [3, 8, 9], [4, 7, 10], [4, 5, 7], [2, 3, 7], [3, 9, 10], [3, 4, 6], [1, 4, 6], [2, 4, 5], [2, 3, 9], [7, 8, 9], [3, 4, 10], [1, 4, 8], [2, 7, 8], [1, 9, 10], [1, 3, 8], [3, 7, 9], [2, 6, 8], [8, 9, 10], [3, 4, 9], [3, 8, 10], [4, 7, 9], [2, 3, 5], [6, 7, 9], [6, 9, 10], [4, 5, 6], [1, 3, 7], [1, 4, 7], [1, 3, 7], [3, 7, 9], [2, 8, 9], [4, 6, 7], [5, 8, 9], [8, 9, 10], [3, 5, 8], [1, 3, 7], [1, 4, 8], [8, 9, 10], [1, 3, 10], [1, 7, 8], [4, 5, 6], [1, 2, 9], [1, 7, 8], [7, 8, 9], [5, 8, 9], [8, 9, 10], [2, 9, 10], [2, 7, 10], [2, 4, 9], [3, 5, 9], [1, 2, 6], [1, 9, 10], [2, 3, 9], [3, 4, 6], [1, 2, 5], [2, 3, 6], [7, 9, 10], [5, 6, 9], [1, 6, 8], [3, 4, 9], [3, 8, 10], [3, 6, 9], [4, 8, 9], [1, 6, 7], [2, 3, 9], [2, 8, 10], [2, 4, 9], [2, 3, 4], [6, 9, 10], [1, 7, 9], [2, 3, 10], [2, 5, 6], [4, 5, 7], [3, 7, 8], [1, 9, 10], [4, 6, 10], [1, 6, 8], [1, 3, 6], [1, 5, 10], [4, 6, 8], [4, 6, 7], [1, 4, 5], [2, 3, 6], [4, 5, 8], [4, 6, 9], [2, 8, 9], [3, 4, 10], [7, 8, 9], [2, 3, 4], [5, 7, 10], [1, 2, 3], [1, 4, 8], [1, 4, 9], [3, 5, 7], [1, 4, 6], [1, 2, 5], [4, 7, 10], [1, 6, 9], [4, 8, 10], [3, 5, 8], [5, 7, 10], [0]]
letting resourceUsage = [[[0, 0, 0, 0]], [[1, 3, 5, 8], [1, 2, 4, 8], [1, 2, 2, 8]], [[2, 5, 4, 7], [2, 3, 3, 5], [2, 3, 3, 2]], [[5, 2, 8, 1], [3, 2, 6, 1], [3, 2, 3, 1]], [[4, 4, 7, 8], [3, 3, 6, 6], [2, 2, 4, 3]], [[4, 5, 3, 1], [2, 2, 2, 1], [1, 1, 2, 1]], [[2, 3, 6, 1], [1, 2, 6, 1], [1, 2, 5, 1]], [[4, 4, 5, 5], [4, 3, 3, 5], [3, 3, 2, 5]], [[3, 2, 10, 6], [3, 2, 10, 5], [2, 2, 10, 4]], [[4, 3, 8, 6], [4, 2, 6, 6], [3, 1, 5, 2]], [[4, 4, 8, 5], [2, 3, 8, 5], [2, 3, 8, 4]], [[3, 4, 7, 6], [2, 3, 7, 3], [2, 2, 7, 2]], [[3, 3, 4, 4], [3, 2, 3, 4], [3, 2, 3, 3]], [[3, 5, 8, 9], [2, 3, 7, 8], [2, 3, 6, 8]], [[3, 2, 7, 8], [2, 2, 7, 5], [1, 2, 7, 5]], [[3, 2, 6, 2], [3, 1, 3, 1], [1, 1, 2, 1]], [[1, 2, 6, 6], [1, 2, 6, 5], [1, 1, 6, 5]], [[4, 5, 3, 7], [3, 4, 2, 4], [3, 4, 2, 3]], [[2, 2, 5, 7], [2, 1, 5, 4], [2, 1, 5, 3]], [[3, 3, 7, 7], [2, 2, 7, 7], [2, 1, 7, 7]], [[2, 3, 8, 5], [2, 3, 3, 5], [2, 2, 1, 3]], [[5, 5, 10, 2], [4, 4, 8, 2], [3, 3, 8, 1]], [[5, 3, 6, 5], [5, 2, 5, 5], [5, 2, 5, 4]], [[4, 4, 10, 5], [3, 4, 9, 4], [2, 4, 9, 4]], [[1, 5, 8, 7], [1, 4, 4, 5], [1, 4, 1, 1]], [[3, 5, 7, 1], [3, 4, 5, 1], [3, 3, 3, 1]], [[4, 2, 3, 7], [4, 1, 2, 5], [3, 1, 2, 5]], [[3, 4, 8, 7], [1, 4, 7, 7], [1, 4, 5, 7]], [[2, 4, 8, 10], [2, 2, 6, 8], [2, 1, 4, 8]], [[1, 4, 3, 6], [1, 4, 3, 5], [1, 4, 3, 4]], [[4, 3, 2, 7], [3, 1, 1, 6], [2, 1, 1, 3]], [[4, 2, 10, 5], [4, 2, 4, 5], [4, 1, 2, 5]], [[3, 4, 9, 7], [3, 3, 7, 7], [1, 3, 7, 7]], [[4, 4, 7, 9], [3, 3, 7, 8], [1, 3, 6, 6]], [[2, 2, 8, 7], [1, 1, 7, 5], [1, 1, 5, 4]], [[2, 3, 6, 7], [2, 2, 5, 5], [2, 1, 5, 5]], [[2, 2, 9, 7], [2, 1, 7, 3], [2, 1, 7, 1]], [[3, 3, 8, 9], [3, 3, 7, 7], [2, 3, 7, 4]], [[1, 2, 7, 7], [1, 2, 7, 6], [1, 2, 7, 5]], [[3, 5, 6, 8], [3, 4, 5, 6], [3, 4, 4, 6]], [[5, 4, 9, 10], [4, 3, 7, 9], [4, 2, 3, 9]], [[3, 2, 9, 4], [2, 2, 8, 4], [2, 2, 7, 2]], [[5, 5, 6, 5], [4, 5, 4, 5], [4, 5, 3, 5]], [[4, 5, 3, 9], [3, 3, 2, 7], [1, 2, 2, 6]], [[2, 5, 6, 8], [2, 3, 6, 4], [2, 2, 5, 1]], [[2, 3, 9, 9], [1, 3, 6, 6], [1, 2, 3, 5]], [[1, 3, 5, 9], [1, 2, 3, 7], [1, 2, 3, 5]], [[4, 3, 8, 2], [3, 2, 7, 2], [1, 2, 7, 2]], [[2, 4, 7, 10], [2, 4, 6, 8], [1, 4, 6, 4]], [[1, 3, 8, 3], [1, 3, 6, 3], [1, 2, 6, 1]], [[1, 4, 6, 10], [1, 4, 5, 6], [1, 3, 3, 5]], [[5, 3, 5, 3], [3, 2, 2, 3], [1, 2, 2, 3]], [[4, 2, 7, 4], [2, 2, 7, 3], [2, 1, 4, 3]], [[4, 4, 6, 10], [3, 4, 5, 6], [3, 4, 4, 6]], [[4, 3, 3, 7], [3, 2, 2, 6], [1, 2, 1, 5]], [[2, 2, 9, 7], [2, 1, 8, 4], [2, 1, 6, 3]], [[4, 4, 8, 7], [3, 4, 6, 5], [1, 3, 6, 3]], [[3, 3, 3, 5], [3, 2, 3, 4], [3, 2, 2, 1]], [[2, 5, 6, 1], [1, 3, 4, 1], [1, 2, 3, 1]], [[3, 2, 9, 3], [2, 1, 8, 3], [2, 1, 7, 3]], [[3, 4, 7, 8], [3, 4, 6, 6], [3, 2, 6, 5]], [[1, 5, 10, 8], [1, 5, 5, 8], [1, 5, 3, 5]], [[4, 4, 4, 9], [3, 2, 3, 8], [3, 2, 3, 6]], [[5, 2, 3, 8], [5, 2, 2, 7], [5, 1, 2, 4]], [[4, 2, 4, 4], [3, 1, 4, 3], [1, 1, 4, 3]], [[4, 4, 8, 4], [4, 2, 8, 4], [4, 2, 6, 3]], [[5, 4, 3, 3], [4, 2, 2, 3], [3, 1, 2, 3]], [[4, 4, 4, 4], [4, 2, 4, 2], [3, 1, 4, 2]], [[4, 3, 5, 10], [3, 3, 5, 6], [1, 3, 5, 5]], [[4, 4, 5, 8], [4, 3, 5, 8], [4, 2, 5, 7]], [[4, 2, 9, 8], [3, 2, 8, 7], [2, 1, 7, 7]], [[4, 3, 9, 4], [4, 2, 9, 4], [4, 2, 8, 4]], [[4, 4, 3, 5], [3, 4, 2, 3], [3, 4, 2, 2]], [[3, 1, 7, 3], [3, 1, 5, 2], [3, 1, 5, 1]], [[5, 1, 3, 10], [4, 1, 2, 9], [4, 1, 1, 9]], [[3, 3, 3, 6], [3, 2, 3, 5], [3, 1, 2, 5]], [[4, 3, 9, 9], [4, 2, 8, 7], [4, 2, 7, 7]], [[4, 1, 8, 3], [3, 1, 8, 3], [2, 1, 7, 3]], [[1, 4, 8, 8], [1, 3, 7, 3], [1, 3, 7, 2]], [[4, 3, 4, 9], [3, 2, 3, 4], [3, 1, 3, 2]], [[5, 5, 9, 7], [5, 2, 9, 7], [5, 1, 9, 7]], [[3, 5, 10, 3], [2, 4, 9, 1], [1, 3, 9, 1]], [[2, 3, 7, 7], [1, 3, 7, 5], [1, 2, 3, 4]], [[2, 3, 9, 3], [2, 3, 4, 3], [2, 3, 3, 3]], [[2, 4, 9, 7], [2, 2, 8, 6], [2, 2, 7, 2]], [[2, 3, 5, 4], [2, 2, 4, 4], [2, 2, 4, 2]], [[3, 3, 1, 3], [2, 2, 1, 1], [2, 1, 1, 1]], [[5, 3, 7, 8], [5, 3, 5, 8], [5, 3, 3, 7]], [[4, 2, 6, 8], [4, 1, 6, 7], [3, 1, 6, 7]], [[4, 5, 8, 7], [4, 4, 7, 6], [4, 3, 7, 4]], [[4, 5, 9, 9], [3, 3, 6, 8], [3, 3, 5, 4]], [[5, 2, 9, 8], [4, 1, 8, 6], [3, 1, 6, 5]], [[3, 4, 7, 6], [2, 3, 7, 6], [2, 2, 7, 5]], [[2, 2, 7, 5], [1, 2, 7, 5], [1, 2, 5, 5]], [[3, 4, 6, 10], [3, 3, 4, 8], [3, 2, 3, 6]], [[3, 1, 5, 7], [3, 1, 4, 4], [3, 1, 4, 3]], [[5, 4, 8, 9], [4, 4, 7, 7], [4, 4, 6, 7]], [[4, 2, 3, 5], [3, 2, 1, 2], [3, 2, 1, 1]], [[5, 4, 9, 2], [4, 2, 7, 2], [4, 2, 7, 1]], [[5, 3, 5, 4], [3, 2, 4, 2], [3, 2, 3, 2]], [[3, 4, 2, 6], [3, 4, 2, 5], [3, 4, 2, 4]], [[0, 0, 0, 0]]]
